NAME : instances/clustered-mixed-tsp/instance-33.tsp
COMMENT : No Comment
TYPE : TSP
DIMENSION: 46
EDGE_WEIGHT_TYPE : EUC_2D
NODE_COORD_SECTION
1 430 1322 
2 1344 1594 
3 288 1774 
4 1490 485 
5 1753 588 
6 65 1359 
7 831 1868 
8 1442 1536 
9 1992 1875 
10 2 1164 
11 1466 1095 
12 350 1063 
13 1436 1112 
14 544 411 
15 863 519 
16 680 407 
17 882 1410 
18 1734 1738 
19 1409 1519 
20 1399 245 
21 1070 256 
22 634 838 
23 148 622 
24 1512 524 
25 1097 534 
26 1730 557 
27 1156 1612 
28 1084 750 
29 1252 600 
30 1779 23 
31 279 678 
32 1701 1404 
33 1800 687 
34 1915 1590 
35 1115 56 
36 13 1497 
37 1280 1496 
38 1137 1387 
39 3 1717 
40 341 41 
41 1945 960 
42 1947 427 
43 1126 588 
44 129 427 
45 1749 1522 
46 1394 513 
EOF
